# Instance R205 - 30 dynamic requests - 70 static requests
Dyn   Stat
30    70
ID    RD
2     -1
3     -1
4     -1
5     -1
6     -1
10    -1
12    -1
13    -1
14    -1
15    -1
16    -1
17    -1
18    -1
19    -1
21    -1
22    -1
23    -1
24    -1
25    -1
26    -1
27    -1
28    -1
29    -1
31    -1
32    -1
33    -1
35    -1
36    -1
37    -1
39    -1
41    -1
42    -1
43    -1
45    -1
47    -1
52    -1
53    -1
54    -1
55    -1
56    -1
58    -1
59    -1
60    -1
62    -1
63    -1
64    -1
65    -1
67    -1
68    -1
70    -1
71    -1
72    -1
73    -1
75    -1
77    -1
78    -1
79    -1
80    -1
81    -1
84    -1
88    -1
90    -1
91    -1
92    -1
93    -1
94    -1
95    -1
97    -1
98    -1
99    -1
1     556
7     159
8     95
9     234
11    76
20    86
30    76
34    389
38    135
40    264
44    63
46    117
48    705
49    267
50    248
51    220
57    157
61    81
66    35
69    83
74    605
76    172
82    86
83    23
85    94
86    105
87    109
89    139
96    319
100   212
